NAME          TESTPROB
ROWS
 N  COST
 E  MYEQN
COLUMNS
    YTWO      MYEQN                1
    ZTHREE    MYEQN                1
RHS
    RHS1      MYEQN                2
BOUNDS
 LI BND1      YTWO                 0
 UI BND1      YTWO                 1
 LI BND1      ZTHREE               0
 UI BND1      ZTHREE               1
ENDATA